p cnf 88 333
-9 29 0
9 29 0
-10 32 0
10 33 0
-11 35 0
11 37 0
-12 38 0
-13 41 0
-14 44 0
-15 47 0
-16 50 0
-17 53 0
-18 56 0
-19 59 0
-20 62 0
-21 65 0
-22 68 0
-23 71 0
-24 74 0
-25 77 0
-26 80 0
-27 83 0
-28 86 0
-30 0
-31 0
-34 0
-29 32 0
-30 33 0
-31 34 0
-32 35 0
-33 36 0
-34 37 0
-35 38 0
-36 39 0
-37 40 0
-38 41 0
-39 42 0
-40 43 0
-41 44 0
-42 45 0
-43 46 0
-44 47 0
-45 48 0
-46 49 0
-47 50 0
-48 51 0
-49 52 0
-50 53 0
-51 54 0
-52 55 0
-53 56 0
-54 57 0
-55 58 0
-56 59 0
-57 60 0
-58 61 0
-59 62 0
-60 63 0
-61 64 0
-62 65 0
-63 66 0
-64 67 0
-65 68 0
-66 69 0
-67 70 0
-68 71 0
-69 72 0
-70 73 0
-71 74 0
-72 75 0
-73 76 0
-74 77 0
-75 78 0
-76 79 0
-77 80 0
-78 81 0
-79 82 0
-80 83 0
-81 84 0
-82 85 0
-83 86 0
-84 87 0
-85 88 0
10 29 -32 0
-10 -29 33 0
30 29 -33 0
10 30 -33 0
-10 -30 34 0
31 30 -34 0
10 31 -34 0
11 32 -35 0
-11 -32 36 0
33 32 -36 0
11 33 -36 0
-11 -33 37 0
34 33 -37 0
11 34 -37 0
12 35 -38 0
-12 -35 39 0
36 35 -39 0
12 36 -39 0
-12 -36 40 0
37 36 -40 0
12 37 -40 0
13 38 -41 0
-13 -38 42 0
39 38 -42 0
13 39 -42 0
-13 -39 43 0
40 39 -43 0
13 40 -43 0
14 41 -44 0
-14 -41 45 0
42 41 -45 0
14 42 -45 0
-14 -42 46 0
43 42 -46 0
14 43 -46 0
15 44 -47 0
-15 -44 48 0
45 44 -48 0
15 45 -48 0
-15 -45 49 0
46 45 -49 0
15 46 -49 0
16 47 -50 0
-16 -47 51 0
48 47 -51 0
16 48 -51 0
-16 -48 52 0
49 48 -52 0
16 49 -52 0
17 50 -53 0
-17 -50 54 0
51 50 -54 0
17 51 -54 0
-17 -51 55 0
52 51 -55 0
17 52 -55 0
18 53 -56 0
-18 -53 57 0
54 53 -57 0
18 54 -57 0
-18 -54 58 0
55 54 -58 0
18 55 -58 0
19 56 -59 0
-19 -56 60 0
57 56 -60 0
19 57 -60 0
-19 -57 61 0
58 57 -61 0
19 58 -61 0
20 59 -62 0
-20 -59 63 0
60 59 -63 0
20 60 -63 0
-20 -60 64 0
61 60 -64 0
20 61 -64 0
21 62 -65 0
-21 -62 66 0
63 62 -66 0
21 63 -66 0
-21 -63 67 0
64 63 -67 0
21 64 -67 0
22 65 -68 0
-22 -65 69 0
66 65 -69 0
22 66 -69 0
-22 -66 70 0
67 66 -70 0
22 67 -70 0
23 68 -71 0
-23 -68 72 0
69 68 -72 0
23 69 -72 0
-23 -69 73 0
70 69 -73 0
23 70 -73 0
24 71 -74 0
-24 -71 75 0
72 71 -75 0
24 72 -75 0
-24 -72 76 0
73 72 -76 0
24 73 -76 0
25 74 -77 0
-25 -74 78 0
75 74 -78 0
25 75 -78 0
-25 -75 79 0
76 75 -79 0
25 76 -79 0
26 77 -80 0
-26 -77 81 0
78 77 -81 0
26 78 -81 0
-26 -78 82 0
79 78 -82 0
26 79 -82 0
27 80 -83 0
-27 -80 84 0
81 80 -84 0
27 81 -84 0
-27 -81 85 0
82 81 -85 0
27 82 -85 0
28 83 -86 0
-28 -83 87 0
84 83 -87 0
28 84 -87 0
-28 -84 88 0
85 84 -88 0
28 85 -88 0
85 28 0
85 84 0
28 85 0
12 -40 37 0
13 -43 40 0
14 -46 43 0
15 -49 46 0
16 -52 49 0
17 -55 52 0
18 -58 55 0
19 -61 58 0
20 -64 61 0
21 -67 64 0
22 -70 67 0
23 -73 70 0
24 -76 73 0
25 -79 76 0
26 -82 79 0
27 -85 82 0
28 -88 85 0
1 2 3 4 5 6 7 8 0
-9 -3 0
-9 -4 0
-9 -6 0
-9 -7 0
-9 -8 0
3 4 6 7 8 9 0
-10 -1 0
-10 -3 0
-10 -7 0
1 3 7 10 0
-11 -6 0
-11 -7 0
-11 -8 0
6 7 8 11 0
-12 -1 0
-12 -3 0
-12 -6 0
-12 -7 0
1 3 6 7 12 0
-13 -1 0
-13 -2 0
-13 -3 0
-13 -4 0
-13 -6 0
-13 -7 0
1 2 3 4 6 7 13 0
-14 -1 0
-14 -3 0
-14 -6 0
1 3 6 14 0
-15 -3 0
-15 -4 0
-15 -5 0
-15 -8 0
3 4 5 8 15 0
-16 -2 0
-16 -3 0
-16 -7 0
2 3 7 16 0
-17 -1 0
-17 -2 0
-17 -3 0
-17 -4 0
-17 -5 0
-17 -6 0
-17 -7 0
1 2 3 4 5 6 7 17 0
-18 -5 0
-18 -7 0
-18 -8 0
5 7 8 18 0
-19 -6 0
-19 -8 0
6 8 19 0
-20 -3 0
-20 -5 0
-20 -7 0
3 5 7 20 0
-21 -1 0
-21 -4 0
-21 -5 0
-21 -7 0
-21 -8 0
1 4 5 7 8 21 0
-22 -3 0
-22 -4 0
3 4 22 0
-23 -3 0
-23 -5 0
-23 -6 0
-23 -7 0
3 5 6 7 23 0
-24 -1 0
-24 -4 0
-24 -6 0
1 4 6 24 0
-25 -2 0
-25 -3 0
-25 -6 0
-25 -7 0
-25 -8 0
2 3 6 7 8 25 0
-26 -5 0
5 26 0
-27 -1 0
-27 -2 0
-27 -5 0
-27 -6 0
-27 -7 0
-27 -8 0
1 2 5 6 7 8 27 0
-28 -1 0
-28 -4 0
-28 -7 0
-28 -8 0
1 4 7 8 28 0
